67358.4
5 6 7 8 9 10 11 12 13 14 15 16 17 29 30 31 32 33 34 35 36 37 61 60 59 58 57 56 55 54 53 52 21 19 18 20 4 2 123 121 122 120 97 96 90 89 88 68 69 62 63 64 65 67 93 92 91 95 94 66 87 99 85 86 83 84 100 101 98 116 117 103 104 105 106 115 114 113 107 108 109 110 111 112 76 75 74 73 72 71 70 77 78 79 80 81 82 102 27 28 38 39 40 51 50 49 48 47 46 45 44 43 42 41 26 25 24 23 22 118 119 3 0 1 
